Route #1: 75 30 48 47 36 69 71 60 70 20 37 5 29 45
Route #2: 51 16 63 23 56 41 42 64 43 1 73 33 6
Route #3: 12 72 39 9 25 55 31 10 58 26
Route #4: 7 11 38 65 66 59 14 53 35
Route #5: 17 3 49 24 18 50 32 44 40
Route #6: 68 2 62 28 22 61 21 74 4
Route #7: 67 34 52 27 15 57 13 54 19 8 46
Cost 701